50
1 0 43
2 0 9
2 1 25
3 0 18
3 1 40
3 2 40
4 0 3
4 1 40
4 2 25
4 3 26
5 0 48
5 1 21
5 2 49
5 3 5
5 4 24
6 0 11
6 1 8
6 2 8
6 3 3
6 4 24
6 5 52
7 0 53
7 1 3
7 2 49
7 3 48
7 4 22
7 5 38
7 6 13
8 0 50
8 1 56
8 2 31
8 3 6
8 4 48
8 5 23
8 6 7
8 7 34
9 0 43
9 1 60
9 2 13
9 3 60
9 4 51
9 5 37
9 6 16
9 7 32
9 8 50
10 0 44
10 1 10
10 2 55
10 3 36
10 4 13
10 5 47
10 6 48
10 7 34
10 8 13
10 9 31
11 0 51
11 1 58
11 2 14
11 3 9
11 4 17
11 5 40
11 6 28
11 7 13
11 8 15
11 9 11
11 10 4
12 0 1
12 1 47
12 2 48
12 3 32
12 4 46
12 5 52
12 6 30
12 7 47
12 8 43
12 9 51
12 10 53
12 11 29
13 0 8
13 1 25
13 2 39
13 3 32
13 4 21
13 5 41
13 6 32
13 7 3
13 8 34
13 9 17
13 10 55
13 11 57
13 12 51
14 0 21
14 1 16
14 2 15
14 3 41
14 4 55
14 5 10
14 6 36
14 7 50
14 8 58
14 9 52
14 10 28
14 11 32
14 12 20
14 13 12
15 0 23
15 1 19
15 2 9
15 3 32
15 4 41
15 5 47
15 6 19
15 7 12
15 8 6
15 9 12
15 10 33
15 11 11
15 12 60
15 13 55
15 14 43
16 0 32
16 1 50
16 2 42
16 3 36
16 4 23
16 5 31
16 6 39
16 7 23
16 8 38
16 9 34
16 10 22
16 11 16
16 12 43
16 13 21
16 14 16
16 15 19
17 0 11
17 1 34
17 2 23
17 3 9
17 4 37
17 5 60
17 6 11
17 7 21
17 8 25
17 9 7
17 10 5
17 11 29
17 12 31
17 13 2
17 14 29
17 15 7
17 16 44
18 0 55
18 1 57
18 2 33
18 3 42
18 4 51
18 5 37
18 6 33
18 7 22
18 8 47
18 9 53
18 10 58
18 11 25
18 12 59
18 13 6
18 14 32
18 15 27
18 16 11
18 17 45
19 0 24
19 1 30
19 2 23
19 3 24
19 4 16
19 5 8
19 6 56
19 7 21
19 8 6
19 9 30
19 10 18
19 11 45
19 12 44
19 13 59
19 14 47
19 15 39
19 16 56
19 17 13
19 18 2
20 0 18
20 1 47
20 2 34
20 3 6
20 4 28
20 5 14
20 6 39
20 7 22
20 8 58
20 9 27
20 10 16
20 11 34
20 12 14
20 13 5
20 14 37
20 15 56
20 16 50
20 17 47
20 18 13
20 19 55
21 0 26
21 1 25
21 2 27
21 3 7
21 4 11
21 5 55
21 6 40
21 7 32
21 8 60
21 9 41
21 10 36
21 11 57
21 12 56
21 13 51
21 14 11
21 15 22
21 16 29
21 17 11
21 18 14
21 19 36
21 20 59
22 0 7
22 1 28
22 2 33
22 3 2
22 4 2
22 5 48
22 6 48
22 7 44
22 8 24
22 9 4
22 10 19
22 11 13
22 12 49
22 13 29
22 14 49
22 15 38
22 16 9
22 17 28
22 18 40
22 19 46
22 20 44
22 21 40
23 0 30
23 1 49
23 2 46
23 3 20
23 4 16
23 5 58
23 6 40
23 7 25
23 8 46
23 9 50
23 10 6
23 11 57
23 12 18
23 13 5
23 14 36
23 15 41
23 16 6
23 17 31
23 18 27
23 19 52
23 20 18
23 21 29
23 22 53
24 0 51
24 1 43
24 2 45
24 3 51
24 4 50
24 5 60
24 6 40
24 7 2
24 8 48
24 9 32
24 10 36
24 11 48
24 12 44
24 13 20
24 14 60
24 15 15
24 16 20
24 17 51
24 18 14
24 19 24
24 20 3
24 21 14
24 22 31
24 23 31
25 0 12
25 1 52
25 2 11
25 3 51
25 4 11
25 5 42
25 6 17
25 7 23
25 8 26
25 9 58
25 10 24
25 11 18
25 12 18
25 13 34
25 14 50
25 15 22
25 16 16
25 17 43
25 18 46
25 19 19
25 20 4
25 21 46
25 22 11
25 23 5
25 24 24
26 0 38
26 1 19
26 2 22
26 3 54
26 4 59
26 5 2
26 6 50
26 7 51
26 8 54
26 9 46
26 10 5
26 11 13
26 12 2
26 13 20
26 14 4
26 15 3
26 16 28
26 17 3
26 18 38
26 19 59
26 20 33
26 21 9
26 22 18
26 23 42
26 24 26
26 25 60
27 0 40
27 1 24
27 2 20
27 3 60
27 4 49
27 5 46
27 6 40
27 7 58
27 8 34
27 9 55
27 10 14
27 11 20
27 12 52
27 13 14
27 14 40
27 15 42
27 16 9
27 17 16
27 18 22
27 19 27
27 20 43
27 21 58
27 22 49
27 23 11
27 24 36
27 25 56
27 26 7
28 0 43
28 1 5
28 2 28
28 3 44
28 4 36
28 5 10
28 6 38
28 7 23
28 8 13
28 9 30
28 10 38
28 11 2
28 12 21
28 13 44
28 14 8
28 15 39
28 16 30
28 17 2
28 18 21
28 19 15
28 20 16
28 21 21
28 22 8
28 23 14
28 24 57
28 25 54
28 26 14
28 27 10
29 0 42
29 1 37
29 2 34
29 3 23
29 4 13
29 5 33
29 6 7
29 7 13
29 8 53
29 9 53
29 10 52
29 11 37
29 12 16
29 13 32
29 14 45
29 15 25
29 16 14
29 17 38
29 18 41
29 19 47
29 20 25
29 21 49
29 22 7
29 23 15
29 24 57
29 25 20
29 26 33
29 27 31
29 28 3
30 0 1
30 1 6
30 2 8
30 3 20
30 4 32
30 5 1
30 6 21
30 7 22
30 8 3
30 9 44
30 10 57
30 11 36
30 12 42
30 13 46
30 14 4
30 15 46
30 16 29
30 17 44
30 18 54
30 19 26
30 20 60
30 21 7
30 22 60
30 23 12
30 24 37
30 25 40
30 26 39
30 27 52
30 28 53
30 29 32
31 0 24
31 1 16
31 2 7
31 3 27
31 4 46
31 5 4
31 6 42
31 7 38
31 8 42
31 9 15
31 10 16
31 11 23
31 12 19
31 13 21
31 14 6
31 15 4
31 16 60
31 17 45
31 18 6
31 19 33
31 20 54
31 21 9
31 22 26
31 23 53
31 24 21
31 25 34
31 26 42
31 27 50
31 28 46
31 29 10
31 30 53
32 0 51
32 1 12
32 2 52
32 3 47
32 4 10
32 5 22
32 6 29
32 7 42
32 8 20
32 9 50
32 10 47
32 11 17
32 12 28
32 13 2
32 14 59
32 15 5
32 16 55
32 17 50
32 18 16
32 19 6
32 20 52
32 21 7
32 22 30
32 23 18
32 24 41
32 25 30
32 26 13
32 27 7
32 28 29
32 29 8
32 30 28
32 31 15
33 0 23
33 1 22
33 2 12
33 3 10
33 4 34
33 5 26
33 6 16
33 7 23
33 8 58
33 9 41
33 10 8
33 11 19
33 12 15
33 13 56
33 14 57
33 15 10
33 16 16
33 17 60
33 18 36
33 19 12
33 20 32
33 21 21
33 22 48
33 23 38
33 24 57
33 25 38
33 26 21
33 27 33
33 28 2
33 29 24
33 30 14
33 31 45
33 32 32
34 0 18
34 1 10
34 2 45
34 3 50
34 4 36
34 5 31
34 6 44
34 7 50
34 8 38
34 9 3
34 10 45
34 11 5
34 12 59
34 13 48
34 14 9
34 15 21
34 16 52
34 17 50
34 18 57
34 19 53
34 20 30
34 21 2
34 22 5
34 23 9
34 24 22
34 25 55
34 26 15
34 27 45
34 28 17
34 29 10
34 30 60
34 31 40
34 32 21
34 33 34
35 0 19
35 1 21
35 2 28
35 3 12
35 4 45
35 5 58
35 6 30
35 7 22
35 8 58
35 9 59
35 10 5
35 11 32
35 12 8
35 13 60
35 14 41
35 15 10
35 16 36
35 17 13
35 18 25
35 19 16
35 20 45
35 21 16
35 22 36
35 23 10
35 24 59
35 25 10
35 26 25
35 27 40
35 28 20
35 29 29
35 30 37
35 31 35
35 32 54
35 33 10
35 34 37
36 0 33
36 1 24
36 2 38
36 3 18
36 4 18
36 5 17
36 6 57
36 7 5
36 8 1
36 9 25
36 10 7
36 11 25
36 12 19
36 13 8
36 14 10
36 15 48
36 16 1
36 17 9
36 18 11
36 19 32
36 20 59
36 21 51
36 22 34
36 23 16
36 24 10
36 25 39
36 26 25
36 27 56
36 28 7
36 29 37
36 30 22
36 31 24
36 32 28
36 33 28
36 34 42
36 35 18
37 0 59
37 1 53
37 2 20
37 3 34
37 4 24
37 5 18
37 6 4
37 7 45
37 8 58
37 9 2
37 10 9
37 11 9
37 12 41
37 13 6
37 14 5
37 15 27
37 16 16
37 17 18
37 18 20
37 19 5
37 20 36
37 21 28
37 22 5
37 23 45
37 24 14
37 25 34
37 26 31
37 27 55
37 28 58
37 29 31
37 30 1
37 31 51
37 32 45
37 33 37
37 34 23
37 35 54
37 36 28
38 0 9
38 1 4
38 2 52
38 3 11
38 4 17
38 5 43
38 6 40
38 7 56
38 8 37
38 9 52
38 10 43
38 11 25
38 12 55
38 13 20
38 14 46
38 15 48
38 16 39
38 17 41
38 18 3
38 19 35
38 20 50
38 21 3
38 22 53
38 23 30
38 24 45
38 25 53
38 26 16
38 27 37
38 28 6
38 29 30
38 30 1
38 31 10
38 32 9
38 33 35
38 34 30
38 35 45
38 36 16
38 37 1
39 0 5
39 1 8
39 2 52
39 3 35
39 4 36
39 5 41
39 6 26
39 7 23
39 8 46
39 9 50
39 10 29
39 11 20
39 12 14
39 13 42
39 14 17
39 15 39
39 16 36
39 17 25
39 18 59
39 19 25
39 20 48
39 21 41
39 22 23
39 23 43
39 24 21
39 25 52
39 26 19
39 27 48
39 28 43
39 29 38
39 30 35
39 31 9
39 32 41
39 33 46
39 34 59
39 35 44
39 36 18
39 37 34
39 38 34
40 0 38
40 1 1
40 2 31
40 3 26
40 4 35
40 5 1
40 6 36
40 7 32
40 8 42
40 9 47
40 10 24
40 11 28
40 12 56
40 13 31
40 14 28
40 15 4
40 16 8
40 17 49
40 18 53
40 19 21
40 20 56
40 21 53
40 22 25
40 23 5
40 24 36
40 25 8
40 26 45
40 27 3
40 28 50
40 29 43
40 30 15
40 31 58
40 32 55
40 33 50
40 34 45
40 35 9
40 36 43
40 37 24
40 38 58
40 39 52
41 0 38
41 1 31
41 2 49
41 3 49
41 4 25
41 5 11
41 6 25
41 7 6
41 8 15
41 9 37
41 10 48
41 11 34
41 12 43
41 13 35
41 14 36
41 15 40
41 16 39
41 17 23
41 18 59
41 19 1
41 20 42
41 21 28
41 22 3
41 23 5
41 24 16
41 25 50
41 26 56
41 27 21
41 28 14
41 29 30
41 30 46
41 31 4
41 32 26
41 33 8
41 34 6
41 35 60
41 36 53
41 37 11
41 38 15
41 39 40
41 40 25
42 0 13
42 1 56
42 2 48
42 3 47
42 4 27
42 5 5
42 6 18
42 7 47
42 8 39
42 9 38
42 10 30
42 11 52
42 12 44
42 13 41
42 14 8
42 15 14
42 16 46
42 17 23
42 18 42
42 19 14
42 20 29
42 21 29
42 22 25
42 23 55
42 24 9
42 25 16
42 26 5
42 27 48
42 28 28
42 29 23
42 30 11
42 31 14
42 32 12
42 33 44
42 34 18
42 35 2
42 36 10
42 37 37
42 38 46
42 39 2
42 40 13
42 41 37
43 0 50
43 1 5
43 2 8
43 3 50
43 4 54
43 5 18
43 6 33
43 7 45
43 8 45
43 9 49
43 10 31
43 11 38
43 12 32
43 13 14
43 14 8
43 15 14
43 16 20
43 17 28
43 18 24
43 19 18
43 20 7
43 21 58
43 22 13
43 23 8
43 24 38
43 25 7
43 26 20
43 27 4
43 28 44
43 29 31
43 30 25
43 31 56
43 32 53
43 33 35
43 34 45
43 35 26
43 36 47
43 37 20
43 38 3
43 39 24
43 40 49
43 41 28
43 42 36
44 0 7
44 1 19
44 2 14
44 3 40
44 4 14
44 5 57
44 6 28
44 7 40
44 8 3
44 9 56
44 10 55
44 11 52
44 12 1
44 13 35
44 14 44
44 15 20
44 16 59
44 17 35
44 18 41
44 19 32
44 20 9
44 21 56
44 22 37
44 23 56
44 24 11
44 25 35
44 26 58
44 27 4
44 28 50
44 29 55
44 30 32
44 31 30
44 32 40
44 33 49
44 34 55
44 35 10
44 36 13
44 37 4
44 38 3
44 39 15
44 40 31
44 41 3
44 42 52
44 43 38
45 0 38
45 1 7
45 2 9
45 3 18
45 4 52
45 5 16
45 6 53
45 7 40
45 8 45
45 9 41
45 10 48
45 11 12
45 12 51
45 13 28
45 14 59
45 15 14
45 16 5
45 17 39
45 18 32
45 19 41
45 20 12
45 21 12
45 22 45
45 23 55
45 24 19
45 25 39
45 26 31
45 27 15
45 28 58
45 29 36
45 30 30
45 31 44
45 32 54
45 33 13
45 34 33
45 35 1
45 36 40
45 37 20
45 38 36
45 39 39
45 40 35
45 41 5
45 42 29
45 43 14
45 44 43
46 0 51
46 1 45
46 2 52
46 3 10
46 4 7
46 5 38
46 6 11
46 7 18
46 8 34
46 9 11
46 10 49
46 11 12
46 12 21
46 13 40
46 14 51
46 15 21
46 16 30
46 17 43
46 18 6
46 19 58
46 20 49
46 21 27
46 22 46
46 23 9
46 24 45
46 25 3
46 26 60
46 27 14
46 28 16
46 29 15
46 30 41
46 31 2
46 32 19
46 33 39
46 34 56
46 35 23
46 36 48
46 37 2
46 38 33
46 39 31
46 40 57
46 41 57
46 42 25
46 43 29
46 44 30
46 45 11
47 0 12
47 1 45
47 2 16
47 3 9
47 4 13
47 5 30
47 6 42
47 7 4
47 8 18
47 9 20
47 10 49
47 11 23
47 12 47
47 13 26
47 14 25
47 15 14
47 16 10
47 17 20
47 18 33
47 19 24
47 20 55
47 21 51
47 22 32
47 23 23
47 24 43
47 25 53
47 26 11
47 27 33
47 28 47
47 29 8
47 30 56
47 31 1
47 32 17
47 33 48
47 34 55
47 35 32
47 36 3
47 37 6
47 38 26
47 39 49
47 40 42
47 41 49
47 42 5
47 43 17
47 44 31
47 45 30
47 46 46
48 0 34
48 1 5
48 2 56
48 3 10
48 4 32
48 5 47
48 6 50
48 7 20
48 8 10
48 9 54
48 10 16
48 11 47
48 12 37
48 13 23
48 14 53
48 15 56
48 16 52
48 17 56
48 18 5
48 19 56
48 20 4
48 21 59
48 22 46
48 23 14
48 24 37
48 25 21
48 26 19
48 27 17
48 28 14
48 29 6
48 30 43
48 31 24
48 32 50
48 33 35
48 34 16
48 35 42
48 36 48
48 37 48
48 38 9
48 39 22
48 40 7
48 41 34
48 42 45
48 43 53
48 44 23
48 45 60
48 46 39
48 47 8
49 0 28
49 1 38
49 2 29
49 3 7
49 4 51
49 5 41
49 6 18
49 7 54
49 8 21
49 9 45
49 10 57
49 11 10
49 12 58
49 13 41
49 14 43
49 15 13
49 16 20
49 17 29
49 18 19
49 19 28
49 20 33
49 21 31
49 22 36
49 23 47
49 24 38
49 25 16
49 26 6
49 27 8
49 28 58
49 29 41
49 30 56
49 31 25
49 32 8
49 33 26
49 34 42
49 35 30
49 36 21
49 37 3
49 38 37
49 39 44
49 40 18
49 41 29
49 42 41
49 43 31
49 44 55
49 45 39
49 46 57
49 47 49
49 48 40
